Optimal - objective value 13.00000000
      0 x_0_0                       1                       0
      2 x_1_1                       1                       1
      4 x_2_1                       1                       0
      9 x_3_3                       1                       1
     14 x_4_4                       1                       1
     18 x_5_3                       1                       0
     27 x_6_6                       1                       0
     35 x_7_7                       1                       1
     44 x_8_8                       1                       0
     46 x_9_1                       1                       0
     65 x_10_10                     1                       1
     70 x_11_4                      1                      -1
     90 x_12_12                     1                       1
    101 x_13_10                     1                       0
    119 x_14_14                     1                       1
    135 x_15_15                     1                       1
    148 x_16_12                     1                       0
    159 x_17_6                      1                       0
    183 x_18_12                     1                       0
    204 x_19_14                     1                      -1
    230 x_20_20                     1                       1
    231 x_21_0                      1                       0
    275 x_22_22                     1                       0
    298 x_23_22                     1                       0
    320 x_24_20                     1                       0
    328 x_25_3                      1                      -1
    363 x_26_12                     1                       0
    390 x_27_12                     1                       0
    412 x_28_6                      1                       0
    449 x_29_14                     1                       0
    480 x_30_15                     1                       0
    518 x_31_22                     1                       0
    531 x_32_3                      1                       0
    576 x_33_15                     1                       0
    595 x_34_0                      1                       0
    631 x_35_1                      1                       0
    666 x_36_0                      1                       0
    704 x_37_1                      1                       0
    761 x_38_20                     1                       0
    784 x_39_4                      1                       0
    835 x_40_15                     1                       0
    869 x_41_8                      1                       0
    913 x_42_10                     1                       0
    966 x_43_20                     1                       0
    997 x_44_7                      1                       0
   1035 x_45_0                      1                     0.5
   1089 x_46_8                      1                       0
   1142 x_47_14                     1                       0
   1191 x_48_15                     1                       0
   1231 x_49_6                      1                       0
   1297 x_50_22                     1                       0
   1338 x_51_12                     1                       0
   1385 x_52_7                      1                       0
   1437 x_53_6                      1                       0
   1495 x_54_10                     1                       0
   1554 x_55_14                     1                       0
   1611 x_56_15                     1                       0
   1667 x_57_14                     1                       0
   1721 x_58_10                     1                       0
   1777 x_59_7                      1                       0
